results_rootrelaxation/bin018_070_012.srr.sol
solution status: optimal solution found
objective value:                    0.999999999999995
_var2862_                          0.0360784085857433 	(obj:0)
_var2942_                          0.0987215395246948 	(obj:0)
_var2965_                           0.166786997495455 	(obj:0)
_var2969_                           0.176200556963996 	(obj:0)
_var2974_                         0.00252256292510139 	(obj:0)
_var2994_                          0.0343825888485581 	(obj:0)
_var2998_                          0.0647714691545674 	(obj:0)
_var3017_                           0.347400275682033 	(obj:0)
_var3034_                          0.0765111860596948 	(obj:0)
_var3049_                         0.00917234917138321 	(obj:0)
_var3068_                          0.0156934605626949 	(obj:0)
_var3072_                           0.114266387646134 	(obj:0)
_var3100_                          0.0808559781727311 	(obj:0)
_var3101_                           0.103528324706428 	(obj:0)
_var3108_                          0.0111409569531272 	(obj:0)
_var3116_                          0.0667787107989877 	(obj:0)
_var3118_                          0.0513173566021062 	(obj:0)
_var3122_                            0.14352554131479 	(obj:0)
_var3123_                          0.0246528535796033 	(obj:1)
_var3136_                          0.0326316899114205 	(obj:0)
_var3145_                          0.0745787828426391 	(obj:1)
_var3146_                           0.195524400109197 	(obj:0)
_var3151_                         0.00817711993314516 	(obj:0)
_var3152_                          0.0526342458412723 	(obj:1)
_var3163_                            0.11165007827929 	(obj:0)
_var3164_                           0.144349925897592 	(obj:0)
_var3167_                           0.102432765212757 	(obj:0)
_var3170_                           0.305828508758144 	(obj:0)
_var3176_                           0.149291101021469 	(obj:0)
_var3211_                         0.00744644478120826 	(obj:0)
_var3215_                           0.247862197590034 	(obj:0)
_var3225_                           0.304265618579936 	(obj:0)
_var3228_                             0.5436497190677 	(obj:0)
_var3235_                          0.0451453987561009 	(obj:0)
_var3238_                          0.0288618479562471 	(obj:0)
_var3244_                           0.197170323276634 	(obj:0)
_var3247_                          0.0506924049680623 	(obj:0)
_var3253_                          0.0888292352646124 	(obj:0)
_var3265_                           0.102362429661582 	(obj:0)
_var3266_                          0.0667277513695496 	(obj:0)
_var3272_                          0.0454173878763511 	(obj:0)
_var3278_                          0.0974728489285501 	(obj:1)
_var3279_                         0.00287142831855292 	(obj:0)
_var3282_                          0.0619887515400303 	(obj:0)
_var3284_                           0.295191654764078 	(obj:0)
_var3285_                           0.303762200448109 	(obj:1)
_var3289_                          0.0394397069819802 	(obj:0)
_var3291_                           0.113934094862653 	(obj:0)
_var3294_                           0.115623611401607 	(obj:0)
_var3297_                          0.0860073963894069 	(obj:0)
_var3303_                           0.142360896418324 	(obj:0)
_var3305_                           0.241892753973418 	(obj:0)
_var3306_                           0.023454482681287 	(obj:0)
_var3317_                           0.224958148216078 	(obj:0)
_var3322_                          0.0144465946378843 	(obj:0)
_var3323_                           0.039134105948946 	(obj:0)
_var3327_                          0.0111409569531176 	(obj:0)
_var3328_                           0.106759410703432 	(obj:0)
_var3331_                           0.190500141585383 	(obj:0)
_var3336_                           0.139166894833729 	(obj:1)
_var3341_                          0.0643472975241406 	(obj:0)
_var3343_                          0.0311719848807345 	(obj:0)
_var3345_                           0.055479503817354 	(obj:0)
_var3346_                           0.105229745844849 	(obj:0)
_var3348_                           0.121801690915562 	(obj:0)
_var3349_                           0.108871615473832 	(obj:0)
_var3350_                           0.078088702066162 	(obj:0)
_var3355_                          0.0244566265351808 	(obj:0)
_var3370_                           0.164340886512666 	(obj:0)
_var3372_                          0.0187115344965931 	(obj:0)
_var3373_                          0.0110250101214861 	(obj:0)
_var3377_                           0.229395432023214 	(obj:0)
_var3380_                           0.190129558732138 	(obj:0)
_var3386_                           0.284126999167877 	(obj:0)
_var3387_                          0.0849978446794036 	(obj:0)
_var3388_                           0.355789754411545 	(obj:0)
_var3389_                           0.190695244393912 	(obj:0)
_var3391_                           0.020506973337344 	(obj:0)
_var3392_                           0.132697145733094 	(obj:0)
_var3394_                         0.00992417041055371 	(obj:0)
_var3396_                            0.12241257472301 	(obj:0)
_var3400_                           0.186540513187303 	(obj:0)
_var3402_                          0.0417292344667162 	(obj:0)
_var3405_                          0.0326316899114204 	(obj:0)
_var3407_                          0.0581257917675459 	(obj:0)
_var3408_                          0.0111771420532473 	(obj:0)
_var3409_                          0.0237504236051921 	(obj:0)
_var3415_                           0.267598119601382 	(obj:0)
_var3421_                           0.110609630365705 	(obj:1)
_var3424_                          0.0909584241254101 	(obj:0)
_var3426_                           0.230106563127989 	(obj:0)
_var3427_                           0.243646589606159 	(obj:0)
_var3429_                           0.109462231178945 	(obj:0)
_var3430_                           0.210516539201359 	(obj:0)
_var3431_                          0.0129371019713414 	(obj:0)
_var3432_                          0.0856285939755667 	(obj:0)
_var3434_                          0.0516792707971321 	(obj:0)
_var3435_                          0.0290225939417098 	(obj:0)
_var3437_                           0.235800690335668 	(obj:0)
_var3438_                          0.0541361687537056 	(obj:1)
_var3439_                           0.118951587110646 	(obj:0)
_var3443_                           0.256281543815254 	(obj:0)
_var3445_                          0.0897231905475835 	(obj:0)
_var3446_                           0.298977026470261 	(obj:0)
_var3447_                           0.129434083984308 	(obj:0)
_var3450_                          0.0410293188473907 	(obj:0)
_var3451_                           0.370757434662155 	(obj:0)
_var3452_                           0.244729153440992 	(obj:0)
_var3453_                           0.040879748395314 	(obj:0)
_var3455_                           0.139194270804148 	(obj:1)
_var3456_                          0.0821291406685789 	(obj:0)
_var3460_                             0.1323040613519 	(obj:0)
_var3461_                          0.0581708736802836 	(obj:0)
_var3462_                          0.0827144973969288 	(obj:0)
_var3464_                           0.078447844467345 	(obj:0)
_var3467_                           0.163576028196722 	(obj:0)
_var3470_                          0.0701852971506139 	(obj:0)
_var3471_                           0.184880655732377 	(obj:0)
_var3473_                          0.0267284818846405 	(obj:0)
_var3474_                           0.130488085627756 	(obj:0)
_var3477_                            0.16051296484243 	(obj:0)
_var3478_                           0.344976452002126 	(obj:0)
_var3479_                          0.0897099374904817 	(obj:0)
_var3483_                         0.00189082142408004 	(obj:0)
_var3484_                          0.0345514748908848 	(obj:0)
_var3485_                           0.141071055397063 	(obj:0)
_var3487_                           0.113902419048162 	(obj:0)
_var3490_                          0.0270515748270002 	(obj:0)
_var3491_                           0.130244992175321 	(obj:0)
_var3492_                           0.190401655288296 	(obj:0)
_var3495_                           0.158618268109155 	(obj:0)
_var3497_                           0.137234925592003 	(obj:0)
_var3498_                         0.00670772314913541 	(obj:0)
_var3499_                           0.162049580429249 	(obj:0)
_var3500_                          0.0909148728315103 	(obj:0)
_var3501_                             0.2340152455352 	(obj:0)
_var3502_                           0.015808922671814 	(obj:0)
_var3503_                           0.077912351436343 	(obj:0)
_var3504_                          0.0150226890173828 	(obj:0)
_var3506_                         0.00379210360253435 	(obj:1)
_var3508_                           0.217518956489054 	(obj:0)
_var3509_                          0.0188828454406994 	(obj:0)
_var3510_                          0.0139432321906093 	(obj:0)
_var3512_                          0.0806537217396227 	(obj:0)
_var3513_                           0.147634688971719 	(obj:0)
_var3515_                           0.174618708552451 	(obj:0)
_var3516_                          0.0745787828426434 	(obj:0)
_var3518_                            0.12599614071435 	(obj:0)
